(declare-rel state (Int Bool Bool Bool Int Int Int Int Int Int))
(declare-var |Total| Int)
(declare-var |Total.next| Int)
(declare-var |_OK_| Bool)
(declare-var |_OK_.next| Bool)
(declare-var |call_Sofar._Y_| Bool)
(declare-var |call_Sofar._Y_.next| Bool)
(declare-var |call_Sofar.flby| Bool)
(declare-var |call_Sofar.flby.next| Bool)
(declare-var |call_Store.Prev| Int)
(declare-var |call_Store.Prev.next| Int)
(declare-var |call_Store.Total| Int)
(declare-var |call_Store.Total.next| Int)
(declare-var |call_Store.flby| Int)
(declare-var |call_Store.flby.next| Int)
(declare-var |call_Store.ite_keyword| Int)
(declare-var |call_Store.ite_keyword.next| Int)
(declare-var |call_Store.ite_keyword2| Int)
(declare-var |call_Store.ite_keyword2.next| Int)
(declare-var |param_Delta| Int)
(declare-var |param_Delta.next| Int)

(define-fun .init () Bool
(let ((.def_71 (not call_Sofar._Y_)))
(let ((.def_69 (<= 0 Total)))
(let ((.def_68 (<= Total 20)))
(let ((.def_70 (and .def_68 .def_69)))
(let ((.def_72 (or .def_70 .def_71)))
(let ((.def_74 (= .def_72 _OK_)))
(let ((.def_66 (= call_Store.Total Total)))
(let ((.def_75 (and .def_66 .def_74)))
(let ((.def_60 (= call_Store.Prev call_Store.ite_keyword)))
(let ((.def_55 (<= param_Delta 0)))
(let ((.def_56 (not .def_55)))
(let ((.def_53 (<= 10 call_Store.Prev)))
(let ((.def_54 (not .def_53)))
(let ((.def_57 (and .def_54 .def_56)))
(let ((.def_61 (or .def_57 .def_60)))
(let ((.def_58 (not .def_57)))
(let ((.def_48 (* (- 1) call_Store.ite_keyword)))
(let ((.def_49 (+ call_Store.Prev .def_48)))
(let ((.def_50 (+ param_Delta .def_49)))
(let ((.def_51 (= .def_50 0)))
(let ((.def_59 (or .def_51 .def_58)))
(let ((.def_62 (and .def_59 .def_61)))
(let ((.def_32 (<= 0 param_Delta)))
(let ((.def_33 (not .def_32)))
(let ((.def_30 (<= call_Store.Prev 0)))
(let ((.def_31 (not .def_30)))
(let ((.def_34 (or .def_31 .def_33)))
(let ((.def_42 (not .def_34)))
(let ((.def_36 (* (- 1) call_Store.ite_keyword2)))
(let ((.def_39 (+ call_Store.Prev .def_36)))
(let ((.def_40 (+ param_Delta .def_39)))
(let ((.def_41 (= .def_40 0)))
(let ((.def_43 (or .def_41 .def_42)))
(let ((.def_63 (and .def_43 .def_62)))
(let ((.def_29 (= call_Store.ite_keyword2 call_Store.ite_keyword)))
(let ((.def_35 (or .def_29 .def_34)))
(let ((.def_64 (and .def_35 .def_63)))
(let ((.def_76 (and .def_64 .def_75)))
(let ((.def_27 (= call_Store.Total call_Store.ite_keyword2)))
(let ((.def_77 (and .def_27 .def_76)))
(let ((.def_24 (= call_Store.flby call_Store.Prev)))
(let ((.def_78 (and .def_24 .def_77)))
(let ((.def_18 (<= (- 1) param_Delta)))
(let ((.def_16 (<= param_Delta 1)))
(let ((.def_19 (and .def_16 .def_18)))
(let ((.def_20 (or call_Sofar.flby .def_19)))
(let ((.def_22 (= .def_20 call_Sofar._Y_)))
(let ((.def_79 (and .def_22 .def_78)))
(let ((.def_11 (= call_Store.flby 0)))
(let ((.def_13 (and .def_11 call_Sofar.flby)))
(let ((.def_80 (and .def_13 .def_79)))
.def_80))))))))))))))))))))))))))))))))))))))))))))))))))))

(define-fun .trans () Bool
(let ((.def_147 (= call_Store.Total call_Store.flby.next)))
(let ((.def_146 (= call_Sofar._Y_ call_Sofar.flby.next)))
(let ((.def_148 (and .def_146 .def_147)))
(let ((.def_136 (not call_Sofar._Y_.next)))
(let ((.def_134 (<= 0 Total.next)))
(let ((.def_133 (<= Total.next 20)))
(let ((.def_135 (and .def_133 .def_134)))
(let ((.def_137 (or .def_135 .def_136)))
(let ((.def_139 (= .def_137 _OK_.next)))
(let ((.def_132 (= call_Store.Total.next Total.next)))
(let ((.def_140 (and .def_132 .def_139)))
(let ((.def_126 (= call_Store.Prev.next call_Store.ite_keyword.next)))
(let ((.def_121 (<= param_Delta.next 0)))
(let ((.def_122 (not .def_121)))
(let ((.def_119 (<= 10 call_Store.Prev.next)))
(let ((.def_120 (not .def_119)))
(let ((.def_123 (and .def_120 .def_122)))
(let ((.def_127 (or .def_123 .def_126)))
(let ((.def_124 (not .def_123)))
(let ((.def_115 (* (- 1) call_Store.ite_keyword.next)))
(let ((.def_116 (+ call_Store.Prev.next .def_115)))
(let ((.def_117 (+ param_Delta.next .def_116)))
(let ((.def_118 (= .def_117 0)))
(let ((.def_125 (or .def_118 .def_124)))
(let ((.def_128 (and .def_125 .def_127)))
(let ((.def_99 (<= 0 param_Delta.next)))
(let ((.def_100 (not .def_99)))
(let ((.def_97 (<= call_Store.Prev.next 0)))
(let ((.def_98 (not .def_97)))
(let ((.def_101 (or .def_98 .def_100)))
(let ((.def_109 (not .def_101)))
(let ((.def_103 (* (- 1) call_Store.ite_keyword2.next)))
(let ((.def_106 (+ call_Store.Prev.next .def_103)))
(let ((.def_107 (+ param_Delta.next .def_106)))
(let ((.def_108 (= .def_107 0)))
(let ((.def_110 (or .def_108 .def_109)))
(let ((.def_129 (and .def_110 .def_128)))
(let ((.def_96 (= call_Store.ite_keyword2.next call_Store.ite_keyword.next)))
(let ((.def_102 (or .def_96 .def_101)))
(let ((.def_130 (and .def_102 .def_129)))
(let ((.def_141 (and .def_130 .def_140)))
(let ((.def_94 (= call_Store.Total.next call_Store.ite_keyword2.next)))
(let ((.def_142 (and .def_94 .def_141)))
(let ((.def_91 (= call_Store.flby.next call_Store.Prev.next)))
(let ((.def_143 (and .def_91 .def_142)))
(let ((.def_83 (<= (- 1) param_Delta.next)))
(let ((.def_82 (<= param_Delta.next 1)))
(let ((.def_84 (and .def_82 .def_83)))
(let ((.def_86 (or .def_84 call_Sofar.flby.next)))
(let ((.def_88 (= .def_86 call_Sofar._Y_.next)))
(let ((.def_144 (and .def_88 .def_143)))
(let ((.def_71 (not call_Sofar._Y_)))
(let ((.def_69 (<= 0 Total)))
(let ((.def_68 (<= Total 20)))
(let ((.def_70 (and .def_68 .def_69)))
(let ((.def_72 (or .def_70 .def_71)))
(let ((.def_74 (= .def_72 _OK_)))
(let ((.def_66 (= call_Store.Total Total)))
(let ((.def_75 (and .def_66 .def_74)))
(let ((.def_60 (= call_Store.Prev call_Store.ite_keyword)))
(let ((.def_55 (<= param_Delta 0)))
(let ((.def_56 (not .def_55)))
(let ((.def_53 (<= 10 call_Store.Prev)))
(let ((.def_54 (not .def_53)))
(let ((.def_57 (and .def_54 .def_56)))
(let ((.def_61 (or .def_57 .def_60)))
(let ((.def_58 (not .def_57)))
(let ((.def_48 (* (- 1) call_Store.ite_keyword)))
(let ((.def_49 (+ call_Store.Prev .def_48)))
(let ((.def_50 (+ param_Delta .def_49)))
(let ((.def_51 (= .def_50 0)))
(let ((.def_59 (or .def_51 .def_58)))
(let ((.def_62 (and .def_59 .def_61)))
(let ((.def_32 (<= 0 param_Delta)))
(let ((.def_33 (not .def_32)))
(let ((.def_30 (<= call_Store.Prev 0)))
(let ((.def_31 (not .def_30)))
(let ((.def_34 (or .def_31 .def_33)))
(let ((.def_42 (not .def_34)))
(let ((.def_36 (* (- 1) call_Store.ite_keyword2)))
(let ((.def_39 (+ call_Store.Prev .def_36)))
(let ((.def_40 (+ param_Delta .def_39)))
(let ((.def_41 (= .def_40 0)))
(let ((.def_43 (or .def_41 .def_42)))
(let ((.def_63 (and .def_43 .def_62)))
(let ((.def_29 (= call_Store.ite_keyword2 call_Store.ite_keyword)))
(let ((.def_35 (or .def_29 .def_34)))
(let ((.def_64 (and .def_35 .def_63)))
(let ((.def_76 (and .def_64 .def_75)))
(let ((.def_27 (= call_Store.Total call_Store.ite_keyword2)))
(let ((.def_77 (and .def_27 .def_76)))
(let ((.def_24 (= call_Store.flby call_Store.Prev)))
(let ((.def_78 (and .def_24 .def_77)))
(let ((.def_18 (<= (- 1) param_Delta)))
(let ((.def_16 (<= param_Delta 1)))
(let ((.def_19 (and .def_16 .def_18)))
(let ((.def_20 (or call_Sofar.flby .def_19)))
(let ((.def_22 (= .def_20 call_Sofar._Y_)))
(let ((.def_79 (and .def_22 .def_78)))
(let ((.def_145 (and .def_79 .def_144)))
(let ((.def_149 (and .def_145 .def_148)))
.def_149))))))))))))))))))))))))))))))))))))))))))))))))))))))))))))))))))))))))))))))))))))))))))))))))))))))

(define-fun .property () Bool
_OK_)

(rule (=> .init (state |Total| |_OK_| |call_Sofar._Y_| |call_Sofar.flby| |call_Store.Prev| |call_Store.Total| |call_Store.flby| |call_Store.ite_keyword| |call_Store.ite_keyword2| |param_Delta|)))
(rule (=> (and (state |Total| |_OK_| |call_Sofar._Y_| |call_Sofar.flby| |call_Store.Prev| |call_Store.Total| |call_Store.flby| |call_Store.ite_keyword| |call_Store.ite_keyword2| |param_Delta|) .trans) (state |Total.next| |_OK_.next| |call_Sofar._Y_.next| |call_Sofar.flby.next| |call_Store.Prev.next| |call_Store.Total.next| |call_Store.flby.next| |call_Store.ite_keyword.next| |call_Store.ite_keyword2.next| |param_Delta.next|)))
(declare-rel benchmark_query ())
(rule (=> (and (state |Total| |_OK_| |call_Sofar._Y_| |call_Sofar.flby| |call_Store.Prev| |call_Store.Total| |call_Store.flby| |call_Store.ite_keyword| |call_Store.ite_keyword2| |param_Delta|) (not .property)) benchmark_query))
(query benchmark_query)
